(benchmark gametime
:status unknown
:logic QF_AUFBV
:extrafuns ((gtINDEX92  BitVec[32]))
:extrafuns ((gtFIELD__bitsForTID0__gtAGG____anonstruct_D_Work_4  Array[32:32]))
:extrafuns ((gtINDEX93  BitVec[32]))
:extrafuns ((gtAGG__rtDWork  BitVec[32]))
:extrafuns ((gtINDEX90  BitVec[32]))
:extrafuns ((gtINDEX91  BitVec[32]))
:extrafuns ((gtINDEX88  BitVec[32]))
:extrafuns ((gtINDEX89  BitVec[32]))
:extrafuns ((gtINDEX86  BitVec[32]))
:extrafuns ((gtINDEX87  BitVec[32]))
:extrafuns ((gtINDEX85  BitVec[32]))
:extrafuns ((gtINDEX84  BitVec[32]))
:extrafuns ((gtINDEX83  BitVec[32]))
:extrafuns ((gtINDEX82  BitVec[32]))
:extrafuns ((gtINDEX80  BitVec[32]))
:extrafuns ((gtINDEX81  BitVec[32]))
:extrafuns ((gtINDEX78  BitVec[32]))
:extrafuns ((gtINDEX79  BitVec[32]))
:extrafuns ((gtINDEX77  BitVec[32]))
:extrafuns ((gtINDEX75  BitVec[32]))
:extrafuns ((gtINDEX76  BitVec[32]))
:extrafuns ((gtINDEX74  BitVec[32]))
:extrafuns ((gtINDEX72  BitVec[32]))
:extrafuns ((gtINDEX73  BitVec[32]))
:extrafuns ((gtINDEX70  BitVec[32]))
:extrafuns ((gtINDEX71  BitVec[32]))
:extrafuns ((gtINDEX69  BitVec[32]))
:extrafuns ((gtINDEX67  BitVec[32]))
:extrafuns ((gtINDEX68  BitVec[32]))
:extrafuns ((gtINDEX65  BitVec[32]))
:extrafuns ((gtINDEX66  BitVec[32]))
:extrafuns ((gtINDEX63  BitVec[32]))
:extrafuns ((gtINDEX64  BitVec[32]))
:extrafuns ((gtINDEX61  BitVec[32]))
:extrafuns ((gtINDEX62  BitVec[32]))
:extrafuns ((gtINDEX59  BitVec[32]))
:extrafuns ((gtINDEX60  BitVec[32]))
:extrafuns ((gtINDEX57  BitVec[32]))
:extrafuns ((gtINDEX58  BitVec[32]))
:extrafuns ((gtINDEX55  BitVec[32]))
:extrafuns ((gtINDEX56  BitVec[32]))
:extrafuns ((gtINDEX53  BitVec[32]))
:extrafuns ((gtINDEX54  BitVec[32]))
:extrafuns ((gtINDEX52  BitVec[32]))
:extrafuns ((gtINDEX50  BitVec[32]))
:extrafuns ((gtINDEX51  BitVec[32]))
:extrafuns ((gtINDEX49  BitVec[32]))
:extrafuns ((gtINDEX48  BitVec[32]))
:extrafuns ((gtINDEX46  BitVec[32]))
:extrafuns ((gtINDEX47  BitVec[32]))
:extrafuns ((gtINDEX44  BitVec[32]))
:extrafuns ((gtINDEX45  BitVec[32]))
:extrafuns ((gtINDEX42  BitVec[32]))
:extrafuns ((gtINDEX43  BitVec[32]))
:extrafuns ((gtINDEX41  BitVec[32]))
:extrafuns ((gtINDEX40  BitVec[32]))
:extrafuns ((gtINDEX38  BitVec[32]))
:extrafuns ((gtINDEX39  BitVec[32]))
:extrafuns ((gtINDEX36  BitVec[32]))
:extrafuns ((gtINDEX37  BitVec[32]))
:extrafuns ((gtINDEX35  BitVec[32]))
:extrafuns ((gtINDEX33  BitVec[32]))
:extrafuns ((gtINDEX34  BitVec[32]))
:extrafuns ((gtINDEX32  BitVec[32]))
:extrafuns ((gtINDEX30  BitVec[32]))
:extrafuns ((gtINDEX31  BitVec[32]))
:extrafuns ((gtINDEX28  BitVec[32]))
:extrafuns ((gtINDEX29  BitVec[32]))
:extrafuns ((gtINDEX27  BitVec[32]))
:extrafuns ((gtINDEX25  BitVec[32]))
:extrafuns ((gtINDEX26  BitVec[32]))
:extrafuns ((gtINDEX23  BitVec[32]))
:extrafuns ((gtINDEX24  BitVec[32]))
:extrafuns ((gtINDEX21  BitVec[32]))
:extrafuns ((gtINDEX22  BitVec[32]))
:extrafuns ((gtINDEX19  BitVec[32]))
:extrafuns ((gtINDEX20  BitVec[32]))
:extrafuns ((gtINDEX17  BitVec[32]))
:extrafuns ((gtINDEX18  BitVec[32]))
:extrafuns ((gtINDEX15  BitVec[32]))
:extrafuns ((gtINDEX16  BitVec[32]))
:extrafuns ((gtINDEX13  BitVec[32]))
:extrafuns ((gtINDEX14  BitVec[32]))
:extrafuns ((gtINDEX11  BitVec[32]))
:extrafuns ((gtINDEX12  BitVec[32]))
:extrafuns ((gtINDEX10  BitVec[32]))
:extrafuns ((gtINDEX8  BitVec[32]))
:extrafuns ((gtINDEX9  BitVec[32]))
:extrafuns ((gtINDEX7  BitVec[32]))
:extrafuns ((gtINDEX6  BitVec[32]))
:extrafuns ((gtINDEX4  BitVec[32]))
:extrafuns ((gtINDEX5  BitVec[32]))
:extrafuns ((gtINDEX2  BitVec[32]))
:extrafuns ((gtINDEX3  BitVec[32]))
:extrafuns ((gtINDEX0  BitVec[32]))
:extrafuns ((gtINDEX1  BitVec[32]))
:extrafuns ((gtFIELD__is_Eng__gtAGG____anonstruct_bitsForTID0_5_1_  Array[32:1]))
:extrafuns ((gtFIELD__is_Eng__gtAGG____anonstruct_bitsForTID0_5_2_  Array[32:1]))
:extrafuns ((sf_previousEvent_1_  BitVec[32]))
:extrafuns ((sfEvent__2_  BitVec[32]))
:extrafuns ((gtFIELD__is_Eng__gtAGG____anonstruct_bitsForTID0_5  Array[32:1]))
:extrafuns ((gtFIELD__sent__gtAGG____anonstruct_D_Work_4_1_  Array[32:32]))
:extrafuns ((gtFIELD__sent__gtAGG____anonstruct_D_Work_4_2_  Array[32:32]))
:extrafuns ((gtFIELD__is_active_Eng__gtAGG____anonstruct_bitsForTID0_5  Array[32:1]))
:extrafuns ((gtFIELD__temporalCounter_i5__gtAGG____anonstruct_D_Work_4_1_  Array[32:32]))
:extrafuns ((gtFIELD__temporalCounter_i5__gtAGG____anonstruct_D_Work_4_2_  Array[32:32]))
:extrafuns ((gtFIELD__is_PURI__gtAGG____anonstruct_bitsForTID0_5_1_  Array[32:2]))
:extrafuns ((gtFIELD__is_PURI__gtAGG____anonstruct_bitsForTID0_5_2_  Array[32:2]))
:extrafuns ((gtFIELD__n_t_a__gtAGG____anonstruct_D_Work_4_1_  Array[32:32]))
:extrafuns ((gtFIELD__n_t_a__gtAGG____anonstruct_D_Work_4_2_  Array[32:32]))
:extrafuns ((sfEvent__1_  BitVec[32]))
:extrafuns ((gtFIELD__is_active_PURI__gtAGG____anonstruct_bitsForTID0_5  Array[32:1]))
:extrafuns ((gtFIELD__is_PVRP__gtAGG____anonstruct_bitsForTID0_5  Array[32:2]))
:extrafuns ((gtFIELD__is_active_PVRP__gtAGG____anonstruct_bitsForTID0_5  Array[32:1]))
:extrafuns ((gtFIELD__is_PPVARP__gtAGG____anonstruct_bitsForTID0_5_1_  Array[32:2]))
:extrafuns ((gtFIELD__is_PPVARP__gtAGG____anonstruct_bitsForTID0_5_2_  Array[32:2]))
:extrafuns ((gtFIELD__is_active_PPVARP__gtAGG____anonstruct_bitsForTID0_5  Array[32:1]))
:extrafuns ((gtFIELD__temporalCounter_i2__gtAGG____anonstruct_D_Work_4_1_  Array[32:32]))
:extrafuns ((gtFIELD__temporalCounter_i2__gtAGG____anonstruct_D_Work_4_2_  Array[32:32]))
:extrafuns ((gtFIELD__is_PLRI__gtAGG____anonstruct_bitsForTID0_5_1_  Array[32:2]))
:extrafuns ((gtFIELD__is_PLRI__gtAGG____anonstruct_bitsForTID0_5_2_  Array[32:2]))
:extrafuns ((gtFIELD__n_t_n__gtAGG____anonstruct_D_Work_4_1_  Array[32:32]))
:extrafuns ((gtFIELD__n_t_n__gtAGG____anonstruct_D_Work_4_2_  Array[32:32]))
:extrafuns ((gtFIELD__is_active_PLRI__gtAGG____anonstruct_bitsForTID0_5  Array[32:1]))
:extrafuns ((gtFIELD__is_active_PAVI__gtAGG____anonstruct_bitsForTID0_5  Array[32:1]))
:extrafuns ((sfEvent_  BitVec[32]))
:extrafuns ((gtFIELD__sent__gtAGG____anonstruct_D_Work_4  Array[32:32]))
:extrafuns ((gtFIELD__temporalCounter_i5__gtAGG____anonstruct_D_Work_4  Array[32:32]))
:extrafuns ((gtFIELD__is_PURI__gtAGG____anonstruct_bitsForTID0_5  Array[32:2]))
:extrafuns ((gtFIELD__n_t_a__gtAGG____anonstruct_D_Work_4  Array[32:32]))
:extrafuns ((gtFIELD__is_PPVARP__gtAGG____anonstruct_bitsForTID0_5  Array[32:2]))
:extrafuns ((gtFIELD__temporalCounter_i2__gtAGG____anonstruct_D_Work_4  Array[32:32]))
:extrafuns ((gtFIELD__is_PLRI__gtAGG____anonstruct_bitsForTID0_5  Array[32:2]))
:extrafuns ((gtFIELD__n_t_n__gtAGG____anonstruct_D_Work_4  Array[32:32]))
:extrapreds ((constraint160 ))
:extrapreds ((constraint159 ))
:extrapreds ((constraint158 ))
:extrapreds ((constraint157 ))
:extrapreds ((constraint156 ))
:extrapreds ((constraint155 ))
:extrapreds ((constraint154 ))
:extrapreds ((constraint153 ))
:extrapreds ((constraint152 ))
:extrapreds ((constraint151 ))
:extrapreds ((constraint150 ))
:extrapreds ((constraint149 ))
:extrapreds ((constraint148 ))
:extrapreds ((constraint147 ))
:extrapreds ((constraint146 ))
:extrapreds ((constraint145 ))
:extrapreds ((constraint144 ))
:extrapreds ((constraint143 ))
:extrapreds ((constraint142 ))
:extrapreds ((constraint141 ))
:extrapreds ((constraint140 ))
:extrapreds ((constraint139 ))
:extrapreds ((constraint138 ))
:extrapreds ((constraint137 ))
:extrapreds ((constraint136 ))
:extrapreds ((constraint135 ))
:extrapreds ((constraint134 ))
:extrapreds ((constraint133 ))
:extrapreds ((constraint132 ))
:extrapreds ((constraint131 ))
:extrapreds ((constraint130 ))
:extrapreds ((constraint129 ))
:extrapreds ((constraint128 ))
:extrapreds ((constraint127 ))
:extrapreds ((constraint126 ))
:extrapreds ((constraint125 ))
:extrapreds ((constraint124 ))
:extrapreds ((constraint123 ))
:extrapreds ((constraint122 ))
:extrapreds ((constraint121 ))
:extrapreds ((constraint120 ))
:extrapreds ((constraint119 ))
:extrapreds ((constraint118 ))
:extrapreds ((constraint117 ))
:extrapreds ((constraint116 ))
:extrapreds ((constraint115 ))
:extrapreds ((constraint114 ))
:extrapreds ((constraint113 ))
:extrapreds ((constraint112 ))
:extrapreds ((constraint111 ))
:extrapreds ((constraint110 ))
:extrapreds ((constraint109 ))
:extrapreds ((constraint108 ))
:extrapreds ((constraint107 ))
:extrapreds ((constraint106 ))
:extrapreds ((constraint105 ))
:extrapreds ((constraint104 ))
:extrapreds ((constraint103 ))
:extrapreds ((constraint102 ))
:extrapreds ((constraint101 ))
:extrapreds ((constraint100 ))
:extrapreds ((constraint99 ))
:extrapreds ((constraint98 ))
:extrapreds ((constraint97 ))
:extrapreds ((constraint96 ))
:extrapreds ((constraint95 ))
:extrapreds ((constraint94 ))
:extrapreds ((constraint93 ))
:extrapreds ((constraint92 ))
:extrapreds ((constraint91 ))
:extrapreds ((constraint90 ))
:extrapreds ((constraint89 ))
:extrapreds ((constraint88 ))
:extrapreds ((constraint87 ))
:extrapreds ((constraint86 ))
:extrapreds ((constraint85 ))
:extrapreds ((constraint84 ))
:extrapreds ((constraint83 ))
:extrapreds ((constraint82 ))
:extrapreds ((constraint81 ))
:extrapreds ((constraint80 ))
:extrapreds ((constraint79 ))
:extrapreds ((constraint78 ))
:extrapreds ((constraint77 ))
:extrapreds ((constraint76 ))
:extrapreds ((constraint75 ))
:extrapreds ((constraint74 ))
:extrapreds ((constraint73 ))
:extrapreds ((constraint72 ))
:extrapreds ((constraint71 ))
:extrapreds ((constraint70 ))
:extrapreds ((constraint69 ))
:extrapreds ((constraint68 ))
:extrapreds ((constraint67 ))
:extrapreds ((constraint66 ))
:extrapreds ((constraint65 ))
:extrapreds ((constraint64 ))
:extrapreds ((constraint63 ))
:extrapreds ((constraint62 ))
:extrapreds ((constraint61 ))
:extrapreds ((constraint60 ))
:extrapreds ((constraint59 ))
:extrapreds ((constraint58 ))
:extrapreds ((constraint57 ))
:extrapreds ((constraint56 ))
:extrapreds ((constraint55 ))
:extrapreds ((constraint54 ))
:extrapreds ((constraint53 ))
:extrapreds ((constraint52 ))
:extrapreds ((constraint51 ))
:extrapreds ((constraint50 ))
:extrapreds ((constraint49 ))
:extrapreds ((constraint48 ))
:extrapreds ((constraint47 ))
:extrapreds ((constraint46 ))
:extrapreds ((constraint45 ))
:extrapreds ((constraint44 ))
:extrapreds ((constraint43 ))
:extrapreds ((constraint42 ))
:extrapreds ((constraint41 ))
:extrapreds ((constraint40 ))
:extrapreds ((constraint39 ))
:extrapreds ((constraint38 ))
:extrapreds ((constraint37 ))
:extrapreds ((constraint36 ))
:extrapreds ((constraint35 ))
:extrapreds ((constraint34 ))
:extrapreds ((constraint33 ))
:extrapreds ((constraint32 ))
:extrapreds ((constraint31 ))
:extrapreds ((constraint30 ))
:extrapreds ((constraint29 ))
:extrapreds ((constraint28 ))
:extrapreds ((constraint27 ))
:extrapreds ((constraint26 ))
:extrapreds ((constraint25 ))
:extrapreds ((constraint24 ))
:extrapreds ((constraint23 ))
:extrapreds ((constraint22 ))
:extrapreds ((constraint21 ))
:extrapreds ((constraint20 ))
:extrapreds ((constraint19 ))
:extrapreds ((constraint18 ))
:extrapreds ((constraint17 ))
:extrapreds ((constraint16 ))
:extrapreds ((constraint15 ))
:extrapreds ((constraint14 ))
:extrapreds ((constraint13 ))
:extrapreds ((constraint12 ))
:extrapreds ((constraint11 ))
:extrapreds ((constraint10 ))
:extrapreds ((constraint9 ))
:extrapreds ((constraint8 ))
:extrapreds ((constraint7 ))
:extrapreds ((constraint6 ))
:extrapreds ((constraint5 ))
:extrapreds ((constraint4 ))
:extrapreds ((constraint3 ))
:extrapreds ((constraint2 ))
:extrapreds ((constraint1 ))
:extrapreds ((constraint0 ))
:formula
(flet ($x804 (and constraint0 constraint1 constraint2 constraint3 constraint4 constraint5 constraint6 constraint7 constraint8 constraint9 constraint10 constraint11 constraint12 constraint13 constraint14 constraint15 constraint16 constraint17 constraint18 constraint19 constraint20 constraint21 constraint22 constraint23 constraint24 constraint25 constraint26 constraint27 constraint28 constraint29 constraint30 constraint31 constraint32 constraint33 constraint34 constraint35 constraint36 constraint37 constraint38 constraint39 constraint40 constraint41 constraint42 constraint43 constraint44 constraint45 constraint46 constraint47 constraint48 constraint49 constraint50 constraint51 constraint52 constraint53 constraint54 constraint55 constraint56 constraint57 constraint58 constraint59 constraint60 constraint61 constraint62 constraint63 constraint64 constraint65 constraint66 constraint67 constraint68 constraint69 constraint70 constraint71 constraint72 constraint73 constraint74 constraint75 constraint76 constraint77 constraint78 constraint79 constraint80 constraint81 constraint82 constraint83 constraint84 constraint85 constraint86 constraint87 constraint88 constraint89 constraint90 constraint91 constraint92 constraint93 constraint94 constraint95 constraint96 constraint97 constraint98 constraint99 constraint100 constraint101 constraint102 constraint103 constraint104 constraint105 constraint106 constraint107 constraint108 constraint109 constraint110 constraint111 constraint112 constraint113 constraint114 constraint115 constraint116 constraint117 constraint118 constraint119 constraint120 constraint121 constraint122 constraint123 constraint124 constraint125 constraint126 constraint127 constraint128 constraint129 constraint130 constraint131 constraint132 constraint133 constraint134 constraint135 constraint136 constraint137 constraint138 constraint139 constraint140 constraint141 constraint142 constraint143 constraint144 constraint145 constraint146 constraint147 constraint148 constraint149 constraint150 constraint151 constraint152 constraint153 constraint154 constraint155 constraint156 constraint157 constraint158 constraint159 constraint160))
(flet ($x480 (= gtINDEX93 (select gtFIELD__bitsForTID0__gtAGG____anonstruct_D_Work_4 gtINDEX92)))
(flet ($x476 (= gtINDEX91 (select gtFIELD__bitsForTID0__gtAGG____anonstruct_D_Work_4 gtINDEX90)))
(flet ($x472 (= gtINDEX89 (select gtFIELD__bitsForTID0__gtAGG____anonstruct_D_Work_4 gtINDEX88)))
(flet ($x468 (= gtINDEX87 (select gtFIELD__bitsForTID0__gtAGG____anonstruct_D_Work_4 gtINDEX86)))
(flet ($x460 (= gtINDEX81 (select gtFIELD__bitsForTID0__gtAGG____anonstruct_D_Work_4 gtINDEX80)))
(flet ($x456 (= gtINDEX79 (select gtFIELD__bitsForTID0__gtAGG____anonstruct_D_Work_4 gtINDEX78)))
(flet ($x451 (= gtINDEX76 (select gtFIELD__bitsForTID0__gtAGG____anonstruct_D_Work_4 gtINDEX75)))
(flet ($x446 (= gtINDEX73 (select gtFIELD__bitsForTID0__gtAGG____anonstruct_D_Work_4 gtINDEX72)))
(flet ($x442 (= gtINDEX71 (select gtFIELD__bitsForTID0__gtAGG____anonstruct_D_Work_4 gtINDEX70)))
(flet ($x437 (= gtINDEX68 (select gtFIELD__bitsForTID0__gtAGG____anonstruct_D_Work_4 gtINDEX67)))
(flet ($x433 (= gtINDEX66 (select gtFIELD__bitsForTID0__gtAGG____anonstruct_D_Work_4 gtINDEX65)))
(flet ($x429 (= gtINDEX64 (select gtFIELD__bitsForTID0__gtAGG____anonstruct_D_Work_4 gtINDEX63)))
(flet ($x425 (= gtINDEX62 (select gtFIELD__bitsForTID0__gtAGG____anonstruct_D_Work_4 gtINDEX61)))
(flet ($x421 (= gtINDEX60 (select gtFIELD__bitsForTID0__gtAGG____anonstruct_D_Work_4 gtINDEX59)))
(flet ($x417 (= gtINDEX58 (select gtFIELD__bitsForTID0__gtAGG____anonstruct_D_Work_4 gtINDEX57)))
(flet ($x413 (= gtINDEX56 (select gtFIELD__bitsForTID0__gtAGG____anonstruct_D_Work_4 gtINDEX55)))
(flet ($x409 (= gtINDEX54 (select gtFIELD__bitsForTID0__gtAGG____anonstruct_D_Work_4 gtINDEX53)))
(flet ($x404 (= gtINDEX51 (select gtFIELD__bitsForTID0__gtAGG____anonstruct_D_Work_4 gtINDEX50)))
(flet ($x398 (= gtINDEX47 (select gtFIELD__bitsForTID0__gtAGG____anonstruct_D_Work_4 gtINDEX46)))
(flet ($x394 (= gtINDEX45 (select gtFIELD__bitsForTID0__gtAGG____anonstruct_D_Work_4 gtINDEX44)))
(flet ($x390 (= gtINDEX43 (select gtFIELD__bitsForTID0__gtAGG____anonstruct_D_Work_4 gtINDEX42)))
(flet ($x384 (= gtINDEX39 (select gtFIELD__bitsForTID0__gtAGG____anonstruct_D_Work_4 gtINDEX38)))
(flet ($x380 (= gtINDEX37 (select gtFIELD__bitsForTID0__gtAGG____anonstruct_D_Work_4 gtINDEX36)))
(flet ($x375 (= gtINDEX34 (select gtFIELD__bitsForTID0__gtAGG____anonstruct_D_Work_4 gtINDEX33)))
(flet ($x370 (= gtINDEX31 (select gtFIELD__bitsForTID0__gtAGG____anonstruct_D_Work_4 gtINDEX30)))
(flet ($x366 (= gtINDEX29 (select gtFIELD__bitsForTID0__gtAGG____anonstruct_D_Work_4 gtINDEX28)))
(flet ($x361 (= gtINDEX26 (select gtFIELD__bitsForTID0__gtAGG____anonstruct_D_Work_4 gtINDEX25)))
(flet ($x357 (= gtINDEX24 (select gtFIELD__bitsForTID0__gtAGG____anonstruct_D_Work_4 gtINDEX23)))
(flet ($x353 (= gtINDEX22 (select gtFIELD__bitsForTID0__gtAGG____anonstruct_D_Work_4 gtINDEX21)))
(flet ($x349 (= gtINDEX20 (select gtFIELD__bitsForTID0__gtAGG____anonstruct_D_Work_4 gtINDEX19)))
(flet ($x345 (= gtINDEX18 (select gtFIELD__bitsForTID0__gtAGG____anonstruct_D_Work_4 gtINDEX17)))
(flet ($x341 (= gtINDEX16 (select gtFIELD__bitsForTID0__gtAGG____anonstruct_D_Work_4 gtINDEX15)))
(flet ($x337 (= gtINDEX14 (select gtFIELD__bitsForTID0__gtAGG____anonstruct_D_Work_4 gtINDEX13)))
(flet ($x333 (= gtINDEX12 (select gtFIELD__bitsForTID0__gtAGG____anonstruct_D_Work_4 gtINDEX11)))
(flet ($x328 (= gtINDEX9 (select gtFIELD__bitsForTID0__gtAGG____anonstruct_D_Work_4 gtINDEX8)))
(flet ($x322 (= gtINDEX5 (select gtFIELD__bitsForTID0__gtAGG____anonstruct_D_Work_4 gtINDEX4)))
(flet ($x318 (= gtINDEX3 (select gtFIELD__bitsForTID0__gtAGG____anonstruct_D_Work_4 gtINDEX2)))
(flet ($x314 (= gtINDEX1 (select gtFIELD__bitsForTID0__gtAGG____anonstruct_D_Work_4 gtINDEX0)))
(let (?x298 (extract[0:0] bv1[32]))
(let (?x308 (store gtFIELD__is_Eng__gtAGG____anonstruct_bitsForTID0_5_1_ gtINDEX93 ?x298))
(flet ($x614 (iff constraint66 (= gtFIELD__is_Eng__gtAGG____anonstruct_bitsForTID0_5_2_ ?x308)))
(let (?x304 (select gtFIELD__is_Eng__gtAGG____anonstruct_bitsForTID0_5_1_ gtINDEX91))
(let (?x299 (store gtFIELD__is_Eng__gtAGG____anonstruct_bitsForTID0_5 gtINDEX89 ?x298))
(flet ($x608 (iff constraint63 (= gtFIELD__is_Eng__gtAGG____anonstruct_bitsForTID0_5_1_ ?x299)))
(let (?x295 (zero_extend[31] (select gtFIELD__is_Eng__gtAGG____anonstruct_bitsForTID0_5 gtINDEX87)))
(let (?x291 (store gtFIELD__sent__gtAGG____anonstruct_D_Work_4_1_ gtINDEX85 bv0[32]))
(flet ($x604 (iff constraint61 (= gtFIELD__sent__gtAGG____anonstruct_D_Work_4_2_ ?x291)))
(let (?x170 (bvmul bv4294967295[32] bv1[32]))
(flet ($x289 (= (select gtFIELD__sent__gtAGG____anonstruct_D_Work_4_1_ gtINDEX84) ?x170))
(flet ($x285 (= (select gtFIELD__sent__gtAGG____anonstruct_D_Work_4_1_ gtINDEX83) bv9[32]))
(flet ($x280 (= (select gtFIELD__sent__gtAGG____anonstruct_D_Work_4_1_ gtINDEX82) bv4[32]))
(let (?x276 (zero_extend[31] (select gtFIELD__is_Eng__gtAGG____anonstruct_bitsForTID0_5 gtINDEX81)))
(let (?x270 (select gtFIELD__is_active_Eng__gtAGG____anonstruct_bitsForTID0_5 gtINDEX79))
(let (?x267 (store gtFIELD__temporalCounter_i5__gtAGG____anonstruct_D_Work_4_1_ gtINDEX77 bv0[32]))
(flet ($x592 (iff constraint55 (= gtFIELD__temporalCounter_i5__gtAGG____anonstruct_D_Work_4_2_ ?x267)))
(let (?x88 (extract[1:0] bv1[32]))
(let (?x264 (store gtFIELD__is_PURI__gtAGG____anonstruct_bitsForTID0_5_1_ gtINDEX76 ?x88))
(flet ($x590 (iff constraint54 (= gtFIELD__is_PURI__gtAGG____anonstruct_bitsForTID0_5_2_ ?x264)))
(let (?x261 (store gtFIELD__n_t_a__gtAGG____anonstruct_D_Work_4_1_ gtINDEX74 bv0[32]))
(flet ($x588 (iff constraint53 (= gtFIELD__n_t_a__gtAGG____anonstruct_D_Work_4_2_ ?x261)))
(let (?x257 (select gtFIELD__is_PURI__gtAGG____anonstruct_bitsForTID0_5_1_ gtINDEX73))
(let (?x252 (select gtFIELD__is_active_PURI__gtAGG____anonstruct_bitsForTID0_5 gtINDEX71))
(flet ($x249 (= (select gtFIELD__sent__gtAGG____anonstruct_D_Work_4_1_ gtINDEX69) bv0[32]))
(let (?x244 (select gtFIELD__is_PVRP__gtAGG____anonstruct_bitsForTID0_5 gtINDEX68))
(let (?x239 (select gtFIELD__is_PVRP__gtAGG____anonstruct_bitsForTID0_5 gtINDEX66))
(let (?x234 (select gtFIELD__is_active_PVRP__gtAGG____anonstruct_bitsForTID0_5 gtINDEX64))
(let (?x117 (extract[1:0] bv0[32]))
(let (?x231 (store gtFIELD__is_PPVARP__gtAGG____anonstruct_bitsForTID0_5_1_ gtINDEX62 ?x117))
(flet ($x570 (iff constraint44 (= gtFIELD__is_PPVARP__gtAGG____anonstruct_bitsForTID0_5_2_ ?x231)))
(let (?x226 (select gtFIELD__is_PPVARP__gtAGG____anonstruct_bitsForTID0_5_1_ gtINDEX60))
(let (?x221 (select gtFIELD__is_PPVARP__gtAGG____anonstruct_bitsForTID0_5_1_ gtINDEX58))
(let (?x216 (select gtFIELD__is_PPVARP__gtAGG____anonstruct_bitsForTID0_5_1_ gtINDEX56))
(let (?x211 (select gtFIELD__is_active_PPVARP__gtAGG____anonstruct_bitsForTID0_5 gtINDEX54))
(let (?x208 (store gtFIELD__temporalCounter_i2__gtAGG____anonstruct_D_Work_4_1_ gtINDEX52 bv0[32]))
(flet ($x560 (iff constraint39 (= gtFIELD__temporalCounter_i2__gtAGG____anonstruct_D_Work_4_2_ ?x208)))
(let (?x205 (store gtFIELD__is_PLRI__gtAGG____anonstruct_bitsForTID0_5_1_ gtINDEX51 ?x88))
(flet ($x558 (iff constraint38 (= gtFIELD__is_PLRI__gtAGG____anonstruct_bitsForTID0_5_2_ ?x205)))
(let (?x202 (store gtFIELD__n_t_n__gtAGG____anonstruct_D_Work_4_1_ gtINDEX49 bv0[32]))
(flet ($x556 (iff constraint37 (= gtFIELD__n_t_n__gtAGG____anonstruct_D_Work_4_2_ ?x202)))
(flet ($x197 (= (select gtFIELD__sent__gtAGG____anonstruct_D_Work_4_1_ gtINDEX48) bv0[32]))
(let (?x192 (select gtFIELD__is_PLRI__gtAGG____anonstruct_bitsForTID0_5_1_ gtINDEX47))
(let (?x187 (select gtFIELD__is_active_PLRI__gtAGG____anonstruct_bitsForTID0_5 gtINDEX45))
(let (?x181 (select gtFIELD__is_active_PAVI__gtAGG____anonstruct_bitsForTID0_5 gtINDEX43))
(flet ($x172 (= gtFIELD__sent__gtAGG____anonstruct_D_Work_4_1_ (store gtFIELD__sent__gtAGG____anonstruct_D_Work_4 gtINDEX41 ?x170)))
(flet ($x167 (= (select gtFIELD__sent__gtAGG____anonstruct_D_Work_4 gtINDEX40) bv4[32]))
(let (?x163 (zero_extend[31] (select gtFIELD__is_Eng__gtAGG____anonstruct_bitsForTID0_5 gtINDEX39)))
(let (?x157 (select gtFIELD__is_active_Eng__gtAGG____anonstruct_bitsForTID0_5 gtINDEX37))
(let (?x154 (store gtFIELD__temporalCounter_i5__gtAGG____anonstruct_D_Work_4 gtINDEX35 bv0[32]))
(flet ($x528 (iff constraint23 (= gtFIELD__temporalCounter_i5__gtAGG____anonstruct_D_Work_4_1_ ?x154)))
(let (?x151 (store gtFIELD__is_PURI__gtAGG____anonstruct_bitsForTID0_5 gtINDEX34 ?x88))
(flet ($x526 (iff constraint22 (= gtFIELD__is_PURI__gtAGG____anonstruct_bitsForTID0_5_1_ ?x151)))
(flet ($x149 (= gtFIELD__n_t_a__gtAGG____anonstruct_D_Work_4_1_ (store gtFIELD__n_t_a__gtAGG____anonstruct_D_Work_4 gtINDEX32 bv0[32])))
(let (?x144 (select gtFIELD__is_PURI__gtAGG____anonstruct_bitsForTID0_5 gtINDEX31))
(let (?x139 (select gtFIELD__is_active_PURI__gtAGG____anonstruct_bitsForTID0_5 gtINDEX29))
(flet ($x136 (= (select gtFIELD__sent__gtAGG____anonstruct_D_Work_4 gtINDEX27) bv0[32]))
(let (?x131 (select gtFIELD__is_PVRP__gtAGG____anonstruct_bitsForTID0_5 gtINDEX26))
(let (?x126 (select gtFIELD__is_PVRP__gtAGG____anonstruct_bitsForTID0_5 gtINDEX24))
(let (?x121 (select gtFIELD__is_active_PVRP__gtAGG____anonstruct_bitsForTID0_5 gtINDEX22))
(let (?x118 (store gtFIELD__is_PPVARP__gtAGG____anonstruct_bitsForTID0_5 gtINDEX20 ?x117))
(flet ($x508 (iff constraint13 (= gtFIELD__is_PPVARP__gtAGG____anonstruct_bitsForTID0_5_1_ ?x118)))
(let (?x111 (select gtFIELD__is_PPVARP__gtAGG____anonstruct_bitsForTID0_5 gtINDEX18))
(let (?x105 (select gtFIELD__is_PPVARP__gtAGG____anonstruct_bitsForTID0_5 gtINDEX16))
(let (?x100 (select gtFIELD__is_PPVARP__gtAGG____anonstruct_bitsForTID0_5 gtINDEX14))
(let (?x95 (select gtFIELD__is_active_PPVARP__gtAGG____anonstruct_bitsForTID0_5 gtINDEX12))
(let (?x92 (store gtFIELD__temporalCounter_i2__gtAGG____anonstruct_D_Work_4 gtINDEX10 bv0[32]))
(flet ($x498 (iff constraint8 (= gtFIELD__temporalCounter_i2__gtAGG____anonstruct_D_Work_4_1_ ?x92)))
(let (?x89 (store gtFIELD__is_PLRI__gtAGG____anonstruct_bitsForTID0_5 gtINDEX9 ?x88))
(flet ($x496 (iff constraint7 (= gtFIELD__is_PLRI__gtAGG____anonstruct_bitsForTID0_5_1_ ?x89)))
(flet ($x86 (= gtFIELD__n_t_n__gtAGG____anonstruct_D_Work_4_1_ (store gtFIELD__n_t_n__gtAGG____anonstruct_D_Work_4 gtINDEX7 bv0[32])))
(flet ($x80 (= (select gtFIELD__sent__gtAGG____anonstruct_D_Work_4 gtINDEX6) bv0[32]))
(let (?x75 (zero_extend[30] (select gtFIELD__is_PLRI__gtAGG____anonstruct_bitsForTID0_5 gtINDEX5)))
(let (?x69 (select gtFIELD__is_active_PLRI__gtAGG____anonstruct_bitsForTID0_5 gtINDEX3))
(let (?x62 (select gtFIELD__is_active_PAVI__gtAGG____anonstruct_bitsForTID0_5 gtINDEX1))
(flet ($x803 (and (iff constraint0 (not (= sfEvent_ bv8[32]))) (iff constraint1 (not (not (= (zero_extend[31] ?x62) bv0[32])))) (iff constraint2 (not (= (zero_extend[31] ?x69) bv0[32]))) (iff constraint3 (= ?x75 bv1[32])) (iff constraint4 (not $x80)) (iff constraint5 (= sfEvent_ bv4[32])) (iff constraint6 $x86) $x496 $x498 (iff constraint9 (not (= (zero_extend[31] ?x95) bv0[32]))) (iff constraint10 (not (= (zero_extend[30] ?x100) bv1[32]))) (iff constraint11 (not (= (zero_extend[30] ?x105) bv2[32]))) (iff constraint12 (not (= (zero_extend[30] ?x111) bv3[32]))) $x508 (iff constraint14 (not (= (zero_extend[31] ?x121) bv0[32]))) (iff constraint15 (not (= (zero_extend[30] ?x126) bv1[32]))) (iff constraint16 (= (zero_extend[30] ?x131) bv2[32])) (iff constraint17 (not $x136)) (iff constraint18 (not (= (zero_extend[31] ?x139) bv0[32]))) (iff constraint19 (= (zero_extend[30] ?x144) bv1[32])) (iff constraint20 (= sfEvent_ bv4[32])) (iff constraint21 $x149) $x526 $x528 (iff constraint24 (not (= (zero_extend[31] ?x157) bv0[32]))) (iff constraint25 (= ?x163 bv1[32])) (iff constraint26 $x167) (iff constraint27 $x172) (iff constraint28 (= sf_previousEvent_1_ sfEvent_)) (iff constraint29 (= sfEvent__1_ bv5[32])) (iff constraint30 (not (= sfEvent__1_ bv8[32]))) (iff constraint31 (not (not (= (zero_extend[31] ?x181) bv0[32])))) (iff constraint32 (not (= (zero_extend[31] ?x187) bv0[32]))) (iff constraint33 (= (zero_extend[30] ?x192) bv1[32])) (iff constraint34 (not $x197)) (iff constraint35 (not (= sfEvent__1_ bv4[32]))) (iff constraint36 (= sfEvent__1_ bv5[32])) $x556 $x558 $x560 (iff constraint40 (not (= (zero_extend[31] ?x211) bv0[32]))) (iff constraint41 (not (= (zero_extend[30] ?x216) bv1[32]))) (iff constraint42 (not (= (zero_extend[30] ?x221) bv2[32]))) (iff constraint43 (not (= (zero_extend[30] ?x226) bv3[32]))) $x570 (iff constraint45 (not (= (zero_extend[31] ?x234) bv0[32]))) (iff constraint46 (not (= (zero_extend[30] ?x239) bv1[32]))) (iff constraint47 (= (zero_extend[30] ?x244) bv2[32])) (iff constraint48 (not $x249)) (iff constraint49 (not (= (zero_extend[31] ?x252) bv0[32]))) (iff constraint50 (= (zero_extend[30] ?x257) bv1[32])) (iff constraint51 (not (= sfEvent__1_ bv4[32]))) (iff constraint52 (= sfEvent__1_ bv5[32])) $x588 $x590 $x592 (iff constraint56 (not (= (zero_extend[31] ?x270) bv0[32]))) (iff constraint57 (= ?x276 bv1[32])) (iff constraint58 (not $x280)) (iff constraint59 (not $x285)) (iff constraint60 $x289) $x604 (iff constraint62 (= ?x295 bv1[32])) $x608 (iff constraint64 (= sfEvent__2_ sf_previousEvent_1_)) (iff constraint65 (= (zero_extend[31] ?x304) bv1[32])) $x614 (iff constraint67 (= gtINDEX0 gtAGG__rtDWork)) (iff constraint68 $x314) (iff constraint69 (= gtINDEX2 gtAGG__rtDWork)) (iff constraint70 $x318) (iff constraint71 (= gtINDEX4 gtAGG__rtDWork)) (iff constraint72 $x322) (iff constraint73 (= gtINDEX6 gtAGG__rtDWork)) (iff constraint74 (= gtINDEX7 gtAGG__rtDWork)) (iff constraint75 (= gtINDEX8 gtAGG__rtDWork)) (iff constraint76 $x328) (iff constraint77 (= gtINDEX10 gtAGG__rtDWork)) (iff constraint78 (= gtINDEX11 gtAGG__rtDWork)) (iff constraint79 $x333) (iff constraint80 (= gtINDEX13 gtAGG__rtDWork)) (iff constraint81 $x337) (iff constraint82 (= gtINDEX15 gtAGG__rtDWork)) (iff constraint83 $x341) (iff constraint84 (= gtINDEX17 gtAGG__rtDWork)) (iff constraint85 $x345) (iff constraint86 (= gtINDEX19 gtAGG__rtDWork)) (iff constraint87 $x349) (iff constraint88 (= gtINDEX21 gtAGG__rtDWork)) (iff constraint89 $x353) (iff constraint90 (= gtINDEX23 gtAGG__rtDWork)) (iff constraint91 $x357) (iff constraint92 (= gtINDEX25 gtAGG__rtDWork)) (iff constraint93 $x361) (iff constraint94 (= gtINDEX27 gtAGG__rtDWork)) (iff constraint95 (= gtINDEX28 gtAGG__rtDWork)) (iff constraint96 $x366) (iff constraint97 (= gtINDEX30 gtAGG__rtDWork)) (iff constraint98 $x370) (iff constraint99 (= gtINDEX32 gtAGG__rtDWork)) (iff constraint100 (= gtINDEX33 gtAGG__rtDWork)) (iff constraint101 $x375) (iff constraint102 (= gtINDEX35 gtAGG__rtDWork)) (iff constraint103 (= gtINDEX36 gtAGG__rtDWork)) (iff constraint104 $x380) (iff constraint105 (= gtINDEX38 gtAGG__rtDWork)) (iff constraint106 $x384) (iff constraint107 (= gtINDEX40 gtAGG__rtDWork)) (iff constraint108 (= gtINDEX41 gtAGG__rtDWork)) (iff constraint109 (= gtINDEX42 gtAGG__rtDWork)) (iff constraint110 $x390) (iff constraint111 (= gtINDEX44 gtAGG__rtDWork)) (iff constraint112 $x394) (iff constraint113 (= gtINDEX46 gtAGG__rtDWork)) (iff constraint114 $x398) (iff constraint115 (= gtINDEX48 gtAGG__rtDWork)) (iff constraint116 (= gtINDEX49 gtAGG__rtDWork)) (iff constraint117 (= gtINDEX50 gtAGG__rtDWork)) (iff constraint118 $x404) (iff constraint119 (= gtINDEX52 gtAGG__rtDWork)) (iff constraint120 (= gtINDEX53 gtAGG__rtDWork)) (iff constraint121 $x409) (iff constraint122 (= gtINDEX55 gtAGG__rtDWork)) (iff constraint123 $x413) (iff constraint124 (= gtINDEX57 gtAGG__rtDWork)) (iff constraint125 $x417) (iff constraint126 (= gtINDEX59 gtAGG__rtDWork)) (iff constraint127 $x421) (iff constraint128 (= gtINDEX61 gtAGG__rtDWork)) (iff constraint129 $x425) (iff constraint130 (= gtINDEX63 gtAGG__rtDWork)) (iff constraint131 $x429) (iff constraint132 (= gtINDEX65 gtAGG__rtDWork)) (iff constraint133 $x433) (iff constraint134 (= gtINDEX67 gtAGG__rtDWork)) (iff constraint135 $x437) (iff constraint136 (= gtINDEX69 gtAGG__rtDWork)) (iff constraint137 (= gtINDEX70 gtAGG__rtDWork)) (iff constraint138 $x442) (iff constraint139 (= gtINDEX72 gtAGG__rtDWork)) (iff constraint140 $x446) (iff constraint141 (= gtINDEX74 gtAGG__rtDWork)) (iff constraint142 (= gtINDEX75 gtAGG__rtDWork)) (iff constraint143 $x451) (iff constraint144 (= gtINDEX77 gtAGG__rtDWork)) (iff constraint145 (= gtINDEX78 gtAGG__rtDWork)) (iff constraint146 $x456) (iff constraint147 (= gtINDEX80 gtAGG__rtDWork)) (iff constraint148 $x460) (iff constraint149 (= gtINDEX82 gtAGG__rtDWork)) (iff constraint150 (= gtINDEX83 gtAGG__rtDWork)) (iff constraint151 (= gtINDEX84 gtAGG__rtDWork)) (iff constraint152 (= gtINDEX85 gtAGG__rtDWork)) (iff constraint153 (= gtINDEX86 gtAGG__rtDWork)) (iff constraint154 $x468) (iff constraint155 (= gtINDEX88 gtAGG__rtDWork)) (iff constraint156 $x472) (iff constraint157 (= gtINDEX90 gtAGG__rtDWork)) (iff constraint158 $x476) (iff constraint159 (= gtINDEX92 gtAGG__rtDWork)) (iff constraint160 $x480)))
(and $x803 $x804))))))))))))))))))))))))))))))))))))))))))))))))))))))))))))))))))))))))))))))))))))))))))))))))))))))))))))))))))))
)
